db/data/49501166027370161873144730856283519112.z3.out
sat
-------------------
848.571947119
